param set_len = 28;
param target_sum = 941412544;
param values := [1] 104808177 [2] 115821158 [3] 36412531 [4] 91975296 [5] 50312135 [6] 95627039 [7] 108235512 [8] 127834677 [9] 78795344 [10] 22173359 [11] 47321786 [12] 8702168 [13] 122114402 [14] 65081131 [15] 102190633 [16] 65143726 [17] 69248169 [18] 114362452 [19] 55667447 [20] 12599488 [21] 33981632 [22] 70699446 [23] 36905910 [24] 98900619 [25] 70959490 [26] 52902636 [27] 23778571 [28] 11381586 ;
